(declare-const q_init Int)
(declare-const y_init Int)
(declare-const c_0 Int)
(declare-const c_1 Int)
(declare-const c_2 Int)
(declare-const c_3 Int)
(declare-const c_4 Int)
(declare-const c_5 Int)
(declare-const c_6 Int)
(declare-const c_7 Int)
(declare-const c_8 Int)
(declare-const c_9 Int)
(declare-const c_10 Int)
(declare-const c_11 Int)
(declare-const c_12 Int)
(declare-const c_13 Int)
(declare-const c_14 Int)
(declare-const c_15 Int)
(declare-const c_16 Int)
(assert (< c_2 0))
(assert (and (>= (+ (* 1 c_3 ) (* (- 1) q_init ) ) 0) (>= (+ (* (- 1) c_3 ) (* 1 q_init ) ) 0) (>= (+ (* 1 c_4 ) (* (- 1) y_init ) ) 0) (>= (+ (* (- 1) c_4 ) (* 1 y_init ) ) 0) ))
(assert (forall ((q Real) (y Real) (_r_0 Real) ) (=> (and (>= (+ (* (- 1) 1) (* (- 1) c_5 ) (* (- 1) c_6 q ) (* (- 1) c_7 y ) ) 0) (>= (+ (* 1 c_3 ) (* (- 1) q ) ) 0) (>= (+ (* (- 1) c_3 ) (* 1 q ) ) 0) (>= (+ (* 1 c_4 ) (* (- 1) y ) ) 0) (>= (+ (* (- 1) c_4 ) (* 1 y ) ) 0) ) (>= (+ (* 1 c_11 ) (* 1 c_12 q ) (* 1 c_13 y ) ) 0) )))
(assert (forall ((q Real) (y Real) (_r_0 Real) ) (=> (and (>= (+ (* (- 1) 1) (* (- 1) c_5 ) (* (- 1) c_6 q ) (* (- 1) c_7 y ) ) 0) (>= (+ (* 1 c_3 ) (* (- 1) q ) ) 0) (>= (+ (* (- 1) c_3 ) (* 1 q ) ) 0) (>= (+ (* 1 c_4 ) (* (- 1) y ) ) 0) (>= (+ (* (- 1) c_4 ) (* 1 y ) ) 0) ) (>= (+ (* 1 c_14 ) (* 1 c_15 q ) (* 1 c_16 y ) ) 0) )))
(assert (forall ((q Real) (y Real) (_r_0 Real) ) (=> (and (>= (+ (* (- 1) 1) (* (- 1) c_10 y ) (* (- 1) c_8 ) (* (- 1) c_9 q ) ) 0) (>= (+ (* 1 c_3 ) (* (- 1) q ) ) 0) (>= (+ (* (- 1) c_3 ) (* 1 q ) ) 0) (>= (+ (* 1 c_4 ) (* (- 1) y ) ) 0) (>= (+ (* (- 1) c_4 ) (* 1 y ) ) 0) ) (>= (+ (* 1 c_11 ) (* 1 c_12 q ) (* 1 c_13 y ) ) 0) )))
(assert (forall ((q Real) (y Real) (_r_0 Real) ) (=> (and (>= (+ (* (- 1) 1) (* (- 1) c_10 y ) (* (- 1) c_8 ) (* (- 1) c_9 q ) ) 0) (>= (+ (* 1 c_3 ) (* (- 1) q ) ) 0) (>= (+ (* (- 1) c_3 ) (* 1 q ) ) 0) (>= (+ (* 1 c_4 ) (* (- 1) y ) ) 0) (>= (+ (* (- 1) c_4 ) (* 1 y ) ) 0) ) (>= (+ (* 1 c_14 ) (* 1 c_15 q ) (* 1 c_16 y ) ) 0) )))
(assert (forall ((q Real) (y Real) (_r_0 Real) ) (=> (and (>= (+ (* (- 1) 1) (* (- 1) _r_0 c_6 ) (* (- 1) c_5 ) ) 0) (>= (+ (* 1 _r_0 ) (* (- 1) c_0 q ) ) 0) (>= (+ (* (- 1) _r_0 ) (* 1 c_0 q ) ) 0) (>= (+ (* (- 1) 1) (* 1 y ) ) 0) (>= (+ (* (- 1) 1) (* 1 q ) ) 0) (>= (+ (* 1 c_5 ) (* 1 c_6 q ) (* 1 c_7 y ) ) 0) (>= (+ (* 1 c_10 y ) (* 1 c_8 ) (* 1 c_9 q ) ) 0) ) (>= (+ (* 1 _r_0 c_12 ) (* 1 c_11 ) ) 0) )))
(assert (forall ((q Real) (y Real) (_r_0 Real) ) (=> (and (>= (+ (* (- 1) 1) (* (- 1) _r_0 c_6 ) (* (- 1) c_5 ) ) 0) (>= (+ (* 1 _r_0 ) (* (- 1) c_0 q ) ) 0) (>= (+ (* (- 1) _r_0 ) (* 1 c_0 q ) ) 0) (>= (+ (* (- 1) 1) (* 1 y ) ) 0) (>= (+ (* (- 1) 1) (* 1 q ) ) 0) (>= (+ (* 1 c_5 ) (* 1 c_6 q ) (* 1 c_7 y ) ) 0) (>= (+ (* 1 c_10 y ) (* 1 c_8 ) (* 1 c_9 q ) ) 0) ) (>= (+ (* 1 _r_0 c_15 ) (* 1 c_14 ) ) 0) )))
(assert (forall ((q Real) (y Real) (_r_0 Real) ) (=> (and (>= (+ (* (- 1) 1) (* (- 1) _r_0 c_9 ) (* (- 1) c_8 ) ) 0) (>= (+ (* 1 _r_0 ) (* (- 1) c_0 q ) ) 0) (>= (+ (* (- 1) _r_0 ) (* 1 c_0 q ) ) 0) (>= (+ (* (- 1) 1) (* 1 y ) ) 0) (>= (+ (* (- 1) 1) (* 1 q ) ) 0) (>= (+ (* 1 c_5 ) (* 1 c_6 q ) (* 1 c_7 y ) ) 0) (>= (+ (* 1 c_10 y ) (* 1 c_8 ) (* 1 c_9 q ) ) 0) ) (>= (+ (* 1 _r_0 c_12 ) (* 1 c_11 ) ) 0) )))
(assert (forall ((q Real) (y Real) (_r_0 Real) ) (=> (and (>= (+ (* (- 1) 1) (* (- 1) _r_0 c_9 ) (* (- 1) c_8 ) ) 0) (>= (+ (* 1 _r_0 ) (* (- 1) c_0 q ) ) 0) (>= (+ (* (- 1) _r_0 ) (* 1 c_0 q ) ) 0) (>= (+ (* (- 1) 1) (* 1 y ) ) 0) (>= (+ (* (- 1) 1) (* 1 q ) ) 0) (>= (+ (* 1 c_5 ) (* 1 c_6 q ) (* 1 c_7 y ) ) 0) (>= (+ (* 1 c_10 y ) (* 1 c_8 ) (* 1 c_9 q ) ) 0) ) (>= (+ (* 1 _r_0 c_15 ) (* 1 c_14 ) ) 0) )))
(assert (forall ((q Real) (y Real) (_r_0 Real) ) (=> (and (>= (+ (* (- 1) 1) (* (- 1) _r_0 c_6 ) (* (- 1) c_5 ) ) 0) (>= (+ (* 1 _r_0 ) (* (- 1) c_0 q ) ) 0) (>= (+ (* (- 1) _r_0 ) (* 1 c_0 q ) ) 0) (>= (+ (* (- 1) 1) (* 1 y ) ) 0) (>= (+ (* (- 1) 1) (* 1 q ) ) 0) (>= (+ (* 1 c_11 ) (* 1 c_12 q ) (* 1 c_13 y ) ) 0) (>= (+ (* 1 c_14 ) (* 1 c_15 q ) (* 1 c_16 y ) ) 0) ) (>= (+ (* 1 _r_0 c_12 ) (* 1 c_11 ) ) 0) )))
(assert (forall ((q Real) (y Real) (_r_0 Real) ) (=> (and (>= (+ (* (- 1) 1) (* (- 1) _r_0 c_6 ) (* (- 1) c_5 ) ) 0) (>= (+ (* 1 _r_0 ) (* (- 1) c_0 q ) ) 0) (>= (+ (* (- 1) _r_0 ) (* 1 c_0 q ) ) 0) (>= (+ (* (- 1) 1) (* 1 y ) ) 0) (>= (+ (* (- 1) 1) (* 1 q ) ) 0) (>= (+ (* 1 c_11 ) (* 1 c_12 q ) (* 1 c_13 y ) ) 0) (>= (+ (* 1 c_14 ) (* 1 c_15 q ) (* 1 c_16 y ) ) 0) ) (>= (+ (* 1 _r_0 c_15 ) (* 1 c_14 ) ) 0) )))
(assert (forall ((q Real) (y Real) (_r_0 Real) ) (=> (and (>= (+ (* (- 1) 1) (* (- 1) _r_0 c_9 ) (* (- 1) c_8 ) ) 0) (>= (+ (* 1 _r_0 ) (* (- 1) c_0 q ) ) 0) (>= (+ (* (- 1) _r_0 ) (* 1 c_0 q ) ) 0) (>= (+ (* (- 1) 1) (* 1 y ) ) 0) (>= (+ (* (- 1) 1) (* 1 q ) ) 0) (>= (+ (* 1 c_11 ) (* 1 c_12 q ) (* 1 c_13 y ) ) 0) (>= (+ (* 1 c_14 ) (* 1 c_15 q ) (* 1 c_16 y ) ) 0) ) (>= (+ (* 1 _r_0 c_12 ) (* 1 c_11 ) ) 0) )))
(assert (forall ((q Real) (y Real) (_r_0 Real) ) (=> (and (>= (+ (* (- 1) 1) (* (- 1) _r_0 c_9 ) (* (- 1) c_8 ) ) 0) (>= (+ (* 1 _r_0 ) (* (- 1) c_0 q ) ) 0) (>= (+ (* (- 1) _r_0 ) (* 1 c_0 q ) ) 0) (>= (+ (* (- 1) 1) (* 1 y ) ) 0) (>= (+ (* (- 1) 1) (* 1 q ) ) 0) (>= (+ (* 1 c_11 ) (* 1 c_12 q ) (* 1 c_13 y ) ) 0) (>= (+ (* 1 c_14 ) (* 1 c_15 q ) (* 1 c_16 y ) ) 0) ) (>= (+ (* 1 _r_0 c_15 ) (* 1 c_14 ) ) 0) )))
(assert (forall ((q Real) (y Real) (_r_0 Real) ) (=> (and (>= (+ (* (- 1) 1) (* (- 1) c_5 ) (* 1 c_6 ) (* (- 1) c_6 q ) (* 1 c_7 ) (* (- 1) c_7 y ) ) 0) (>= (* (- 1) y ) 0) (>= (+ (* (- 1) 1) (* 1 q ) ) 0) (>= (+ (* 1 c_5 ) (* 1 c_6 q ) (* 1 c_7 y ) ) 0) (>= (+ (* 1 c_10 y ) (* 1 c_8 ) (* 1 c_9 q ) ) 0) ) (>= (+ (* 1 c_11 ) (* (- 1) c_12 ) (* 1 c_12 q ) (* (- 1) c_13 ) (* 1 c_13 y ) ) 0) )))
(assert (forall ((q Real) (y Real) (_r_0 Real) ) (=> (and (>= (+ (* (- 1) 1) (* (- 1) c_5 ) (* 1 c_6 ) (* (- 1) c_6 q ) (* 1 c_7 ) (* (- 1) c_7 y ) ) 0) (>= (* (- 1) y ) 0) (>= (+ (* (- 1) 1) (* 1 q ) ) 0) (>= (+ (* 1 c_5 ) (* 1 c_6 q ) (* 1 c_7 y ) ) 0) (>= (+ (* 1 c_10 y ) (* 1 c_8 ) (* 1 c_9 q ) ) 0) ) (>= (+ (* 1 c_14 ) (* (- 1) c_15 ) (* 1 c_15 q ) (* (- 1) c_16 ) (* 1 c_16 y ) ) 0) )))
(assert (forall ((q Real) (y Real) (_r_0 Real) ) (=> (and (>= (+ (* (- 1) 1) (* 1 c_10 ) (* (- 1) c_10 y ) (* (- 1) c_8 ) (* 1 c_9 ) (* (- 1) c_9 q ) ) 0) (>= (* (- 1) y ) 0) (>= (+ (* (- 1) 1) (* 1 q ) ) 0) (>= (+ (* 1 c_5 ) (* 1 c_6 q ) (* 1 c_7 y ) ) 0) (>= (+ (* 1 c_10 y ) (* 1 c_8 ) (* 1 c_9 q ) ) 0) ) (>= (+ (* 1 c_11 ) (* (- 1) c_12 ) (* 1 c_12 q ) (* (- 1) c_13 ) (* 1 c_13 y ) ) 0) )))
(assert (forall ((q Real) (y Real) (_r_0 Real) ) (=> (and (>= (+ (* (- 1) 1) (* 1 c_10 ) (* (- 1) c_10 y ) (* (- 1) c_8 ) (* 1 c_9 ) (* (- 1) c_9 q ) ) 0) (>= (* (- 1) y ) 0) (>= (+ (* (- 1) 1) (* 1 q ) ) 0) (>= (+ (* 1 c_5 ) (* 1 c_6 q ) (* 1 c_7 y ) ) 0) (>= (+ (* 1 c_10 y ) (* 1 c_8 ) (* 1 c_9 q ) ) 0) ) (>= (+ (* 1 c_14 ) (* (- 1) c_15 ) (* 1 c_15 q ) (* (- 1) c_16 ) (* 1 c_16 y ) ) 0) )))
(assert (forall ((q Real) (y Real) (_r_0 Real) ) (=> (and (>= (+ (* (- 1) 1) (* (- 1) c_5 ) (* 1 c_6 ) (* (- 1) c_6 q ) (* 1 c_7 ) (* (- 1) c_7 y ) ) 0) (>= (* (- 1) y ) 0) (>= (+ (* (- 1) 1) (* 1 q ) ) 0) (>= (+ (* 1 c_11 ) (* 1 c_12 q ) (* 1 c_13 y ) ) 0) (>= (+ (* 1 c_14 ) (* 1 c_15 q ) (* 1 c_16 y ) ) 0) ) (>= (+ (* 1 c_11 ) (* (- 1) c_12 ) (* 1 c_12 q ) (* (- 1) c_13 ) (* 1 c_13 y ) ) 0) )))
(assert (forall ((q Real) (y Real) (_r_0 Real) ) (=> (and (>= (+ (* (- 1) 1) (* (- 1) c_5 ) (* 1 c_6 ) (* (- 1) c_6 q ) (* 1 c_7 ) (* (- 1) c_7 y ) ) 0) (>= (* (- 1) y ) 0) (>= (+ (* (- 1) 1) (* 1 q ) ) 0) (>= (+ (* 1 c_11 ) (* 1 c_12 q ) (* 1 c_13 y ) ) 0) (>= (+ (* 1 c_14 ) (* 1 c_15 q ) (* 1 c_16 y ) ) 0) ) (>= (+ (* 1 c_14 ) (* (- 1) c_15 ) (* 1 c_15 q ) (* (- 1) c_16 ) (* 1 c_16 y ) ) 0) )))
(assert (forall ((q Real) (y Real) (_r_0 Real) ) (=> (and (>= (+ (* (- 1) 1) (* 1 c_10 ) (* (- 1) c_10 y ) (* (- 1) c_8 ) (* 1 c_9 ) (* (- 1) c_9 q ) ) 0) (>= (* (- 1) y ) 0) (>= (+ (* (- 1) 1) (* 1 q ) ) 0) (>= (+ (* 1 c_11 ) (* 1 c_12 q ) (* 1 c_13 y ) ) 0) (>= (+ (* 1 c_14 ) (* 1 c_15 q ) (* 1 c_16 y ) ) 0) ) (>= (+ (* 1 c_11 ) (* (- 1) c_12 ) (* 1 c_12 q ) (* (- 1) c_13 ) (* 1 c_13 y ) ) 0) )))
(assert (forall ((q Real) (y Real) (_r_0 Real) ) (=> (and (>= (+ (* (- 1) 1) (* 1 c_10 ) (* (- 1) c_10 y ) (* (- 1) c_8 ) (* 1 c_9 ) (* (- 1) c_9 q ) ) 0) (>= (* (- 1) y ) 0) (>= (+ (* (- 1) 1) (* 1 q ) ) 0) (>= (+ (* 1 c_11 ) (* 1 c_12 q ) (* 1 c_13 y ) ) 0) (>= (+ (* 1 c_14 ) (* 1 c_15 q ) (* 1 c_16 y ) ) 0) ) (>= (+ (* 1 c_14 ) (* (- 1) c_15 ) (* 1 c_15 q ) (* (- 1) c_16 ) (* 1 c_16 y ) ) 0) )))
(assert (forall ((q Real) (y Real) (_r_0 Real) ) (=> (and (>= (* (- 1) q ) 0) (>= (+ (* 1 c_5 ) (* 1 c_6 q ) (* 1 c_7 y ) ) 0) (>= (+ (* 1 c_10 y ) (* 1 c_8 ) (* 1 c_9 q ) ) 0) ) (>= (* 1 c_2 ) 0) )))
(assert (forall ((q Real) (y Real) (_r_0 Real) ) (=> (and (>= (* (- 1) q ) 0) (>= (+ (* 1 c_11 ) (* 1 c_12 q ) (* 1 c_13 y ) ) 0) (>= (+ (* 1 c_14 ) (* 1 c_15 q ) (* 1 c_16 y ) ) 0) ) (>= (* 1 c_2 ) 0) )))
(check-sat)
(get-model)

